NAME : ftv140.2515.tour
COMMENT : Cost = 0_2515
COMMENT : Found by LKH [Keld Helsgaun] Fri Jan 13 17:16:53 2017
TYPE : TOUR
DIMENSION : 145
TOUR_SECTION
1
3
144
113
133
112
143
82
142
4
5
6
134
135
132
114
116
117
118
119
120
121
122
123
124
102
101
103
104
111
110
108
107
106
100
99
96
95
97
98
105
115
128
127
126
125
130
129
131
136
137
138
139
140
141
7
8
9
10
11
77
75
76
12
13
14
22
30
23
33
37
34
32
31
29
28
27
24
25
26
15
16
17
18
19
20
21
38
39
40
41
35
36
42
43
45
46
47
48
49
52
53
54
44
56
55
59
60
61
69
68
67
64
65
57
58
63
62
66
89
90
91
92
88
71
70
86
87
93
94
109
84
85
72
51
50
74
78
73
79
83
80
81
145
2
-1
EOF
